\ENCODING=ISO-8859-1
\Problem name: IloCplex

Minimize
 obj: 102.75516 x00 + 102.75516 x30 + 70.8021 x01 + 70.8021 x11 + 70.8021 x31
      + 125.0816 x22 + 164.33096 x33 + 45.3542 x24 + 45.3542 x34 + 103.87 x35
      + 20.6155 x26 + 15.6525 x07 + 15.6525 x37 + 55.0273 x08 + 55.0273 x18
      + 55.0273 x38 + 26.2488 x09 + 26.2488 x19 + 26.2488 x39 + 67.897 x010
      + 67.897 x310 + 82.2192 x211 + 82.2192 x311 + 91.5478 x212 + 65.192 x013
      + 65.192 x313 + x27
Subject To
 d: - x00 - x01 - x07 - x08 - x09 - x010 - x013 >= -1
 d: - x11 - x18 - x19 >= -1
 d: - x22 - x24 - x26 - x211 - x212 >= -1
 d: - x30 - x31 - x33 - x34 - x35 - x37 - x38 - x39 - x310 - x311 - x313 >= -1
 j: x22 + x33 + x24 + x34 >= 1
 j: x33 + x35 >= 1
 j: x22 + x26 >= 1
 j: x00 + x30 + x33 + x07 + x37 >= 1
 j: x00 + x30 + x01 + x11 + x31 + x33 + x08 + x18 + x38 >= 1
 j: x00 + x30 + x01 + x11 + x31 + x33 + x09 + x19 + x39 >= 1
 j: x00 + x30 + x33 + x010 + x310 >= 1
 j: x22 + x33 + x211 + x311 >= 1
 j: x22 + x212 >= 1
 j: x00 + x30 + x33 + x013 + x313 >= 1
Bounds
      x27 = 0
End
